\ This file was automatically generated by Zimpl
\ var x1 >= 0;
\ var x2 >= 0;
\ var x3 >= 0;
\ minimize Z:     2*x1 + 3*x2 + 4*x3;
\ subto r1:     1*x1 + 2*x2 + 1*x3 >= 3;
\ subto r2:     2*x1 - 1*x2 + 1*x3 >= 4;
\Problem name: pp
Minimize
 Z:  +2 x1 +3 x2 +4 x3
Subject to
 r1_1:
  + x3 +2 x2 + x1 >= 3
 r2_1:
  + x3 - x2 +2 x1 >= 4
Bounds
 0 <= x1 <= +inf
 0 <= x2 <= +inf
 0 <= x3 <= +inf
End
